
Gurobi 12.0.3 (linux64) logging started Fri Jan  2 04:13:43 2026

Set parameter LogFile to value "/home/bazzo/Scrivania/fjsp_rescheduling/simulations/logs/EX14/gurobi_exp14.log"
Set parameter OutputFlag to value 1
Set parameter TimeLimit to value 2160
Set parameter Presolve to value 2
Set parameter MIPFocus to value 3
Set parameter Heuristics to value 0.1
Set parameter ImproveStartGap to value 0.5
Set parameter Presolve to value 2
Gurobi Optimizer version 12.0.3 build v12.0.3rc0 (linux64 - "Ubuntu 22.04.5 LTS")

CPU model: Intel(R) Xeon(R) W-2145 CPU @ 3.70GHz, instruction set [SSE2|AVX|AVX2|AVX512]
Thread count: 8 physical cores, 16 logical processors, using up to 16 threads

Non-default parameters:
TimeLimit  2160
Heuristics  0.1
MIPFocus  3
Presolve  2
ImproveStartGap  0.5

Optimize a model with 86578 rows, 62681 columns and 407504 nonzeros
Model fingerprint: 0xb6f6c346
Model has 20 quadratic constraints
Variable types: 20 continuous, 62661 integer (62160 binary)
Coefficient statistics:
  Matrix range     [1e+00, 2e+03]
  QMatrix range    [1e+00, 1e+00]
  QLMatrix range   [1e+00, 1e+00]
  Objective range  [1e+00, 1e+00]
  Bounds range     [1e+00, 1e+00]
  RHS range        [1e+00, 6e+03]
Presolve removed 66289 rows and 54621 columns
Presolve time: 1.29s
Presolved: 20289 rows, 8060 columns, 118850 nonzeros
Presolved model has 20 quadratic constraint(s)
Variable types: 20 continuous, 8040 integer (7903 binary)
Root relaxation presolve removed 3247 rows and 1494 columns
Root relaxation presolved: 17042 rows, 6566 columns, 104495 nonzeros


Root relaxation: objective 0.000000e+00, 695 iterations, 0.17 seconds (0.20 work units)

    Nodes    |    Current Node    |     Objective Bounds      |     Work
 Expl Unexpl |  Obj  Depth IntInf | Incumbent    BestBd   Gap | It/Node Time

H    0     0                    4.338975e+07    0.00000   100%     -    1s
*    0     0               0    4.338975e+07    0.00000   100%     -    1s
     0     0    0.00000    0   69 4.3390e+07    0.00000   100%     -    1s
     0     0    0.00000    0   14 4.3390e+07    0.00000   100%     -    3s
H    0     0                    385640.00000    0.00000   100%     -    3s
H    0     0                    209291.00000    0.00000   100%     -    3s
H    0     0                    15804.000000    0.00000   100%     -    3s
     0     0    0.00000    0   42 15804.0000    0.00000   100%     -    5s
     0     0    0.00000    0   65 15804.0000    0.00000   100%     -    5s
     0     0    0.00000    0   23 15804.0000    0.00000   100%     -    6s
H    0     0                    7787.0000000    0.00000   100%     -    6s
H    0     0                    3417.0000000    0.00000   100%     -    6s
H    0     0                    1609.0000000    0.00000   100%     -    6s
H    0     0                    1596.0000000    0.00000   100%     -    6s
H    0     0                    1560.0000000    0.00000   100%     -    6s
     0     0    0.00000    0   35 1560.00000    0.00000   100%     -    6s
     0     0    0.00000    0   28 1560.00000    0.00000   100%     -    9s
     0     0    0.00000    0   55 1560.00000    0.00000   100%     -    9s
     0     0    0.00000    0   11 1560.00000    0.00000   100%     -   11s
H    0     0                    1443.0000000    0.00000   100%     -   11s
H    0     0                    1418.0000000    0.00000   100%     -   11s
H    0     0                     780.0000000    0.00000   100%     -   11s
H    0     0                     618.0000000    0.00000   100%     -   11s
H    0     0                     540.0000000    0.00000   100%     -   11s
     0     0    0.00000    0   42  540.00000    0.00000   100%     -   12s
     0     0    0.00000    0   25  540.00000    0.00000   100%     -   14s
     0     0    0.00000    0    8  540.00000    0.00000   100%     -   15s
     0     0    0.00000    0    8  540.00000    0.00000   100%     -   16s
     0     0    0.00000    0    9  540.00000    0.00000   100%     -   17s
     0     0    0.00000    0   12  540.00000    0.00000   100%     -   18s
     0     0    0.00000    0    6  540.00000    0.00000   100%     -   19s
     0     0    0.00000    0    6  540.00000    0.00000   100%     -   20s
     0     0    0.00000    0    6  540.00000    0.00000   100%     -   21s
H    0     0                     529.0000000    0.00000   100%     -   21s
     0     0    0.00000    0   36  529.00000    0.00000   100%     -   22s
     0     0    0.00000    0   22  529.00000    0.00000   100%     -   24s
     0     0    0.00000    0   23  529.00000    0.00000   100%     -   24s
H    0     0                     426.0000000    0.00000   100%     -   25s
H    0     0                     234.0000000    0.00000   100%     -   25s
H    0     0                      73.0000000    0.00000   100%     -   25s
     0     0    0.00000    0   22   73.00000    0.00000   100%     -   26s
     0     0    0.00000    0   21   73.00000    0.00000   100%     -   26s
H    0     0                      10.0000000    0.00000   100%     -   26s
     0     0    0.00000    0   33   10.00000    0.00000   100%     -   26s
H    0     0                       9.0000000    0.00000   100%     -   27s
H    0     0                       4.0000000    0.00000   100%     -   27s
     0     0    0.00000    0   52    4.00000    0.00000   100%     -   27s
     0     0    0.00000    0    3    4.00000    0.00000   100%     -   28s
     0     0    4.00000    0    2    4.00000    4.00000  0.00%     -   28s

Cutting planes:
  Learned: 2
  Gomory: 3
  Lift-and-project: 2
  Implied bound: 2
  MIR: 11
  StrongCG: 7
  Flow cover: 27
  Zero half: 1
  RLT: 6

Explored 1 nodes (14044 simplex iterations) in 28.88 seconds (29.15 work units)
Thread count was 16 (of 16 available processors)

Solution count 10: 4 4 4 ... 529

Optimal solution found (tolerance 1.00e-04)
Best objective 4.000000000000e+00, best bound 4.000000000000e+00, gap 0.0000%

User-callback calls 14188, time in user-callback 0.11 sec
Set parameter TimeLimit to value 1080
Gurobi Optimizer version 12.0.3 build v12.0.3rc0 (linux64 - "Ubuntu 22.04.5 LTS")

CPU model: Intel(R) Xeon(R) W-2145 CPU @ 3.70GHz, instruction set [SSE2|AVX|AVX2|AVX512]
Thread count: 8 physical cores, 16 logical processors, using up to 16 threads

Non-default parameters:
TimeLimit  1080
Heuristics  0.1
MIPFocus  3
Presolve  2
ImproveStartGap  0.5

Optimize a model with 86579 rows, 62681 columns and 407524 nonzeros
Model fingerprint: 0x4e748803
Model has 20 quadratic constraints
Variable types: 20 continuous, 62661 integer (62160 binary)
Coefficient statistics:
  Matrix range     [1e+00, 2e+03]
  QMatrix range    [1e+00, 1e+00]
  QLMatrix range   [1e+00, 1e+00]
  Objective range  [5e-01, 5e-01]
  Bounds range     [1e+00, 1e+00]
  RHS range        [1e+00, 6e+03]

MIP start from previous solve produced solution with objective 303 (0.09s)
Loaded MIP start from previous solve with objective 303

Presolve removed 79463 rows and 59765 columns
Presolve time: 0.44s
Presolved: 7116 rows, 2916 columns, 31893 nonzeros
Presolved model has 20 quadratic constraint(s)
Found heuristic solution: objective 17.0000000
Variable types: 20 continuous, 2896 integer (2767 binary)
Performing another presolve...
Presolve removed 3628 rows and 1449 columns
Presolve time: 0.26s
Root relaxation presolve removed 479 rows and 239 columns
Root relaxation presolved: 3015 rows, 1228 columns, 15419 nonzeros


Root relaxation: objective 7.000000e+00, 132 iterations, 0.03 seconds (0.02 work units)

    Nodes    |    Current Node    |     Objective Bounds      |     Work
 Expl Unexpl |  Obj  Depth IntInf | Incumbent    BestBd   Gap | It/Node Time

     0     0    7.00000    0   10   17.00000    7.00000  58.8%     -    0s
H    0     0                      16.0000000    7.00000  56.2%     -    0s
H    0     0                       8.0000000    7.00000  12.5%     -    0s

Resetting heuristic parameters to focus on improving solution
(using Heuristics=0.5 and RINS=10)...

     0     0    7.00000    0   24    8.00000    7.00000  12.5%     -    0s
H    0     0                       7.0000000    7.00000  0.00%     -    0s

Cutting planes:
  Learned: 3
  Lift-and-project: 1
  Cover: 3
  MIR: 1
  StrongCG: 3
  Flow cover: 8
  RLT: 1

Explored 1 nodes (218 simplex iterations) in 0.97 seconds (1.23 work units)
Thread count was 16 (of 16 available processors)

Solution count 6: 7 8 16 ... 303

Optimal solution found (tolerance 1.00e-04)
Best objective 7.000000000000e+00, best bound 7.000000000000e+00, gap 0.0000%

User-callback calls 846, time in user-callback 0.00 sec
Set parameter TimeLimit to value 360
Gurobi Optimizer version 12.0.3 build v12.0.3rc0 (linux64 - "Ubuntu 22.04.5 LTS")

CPU model: Intel(R) Xeon(R) W-2145 CPU @ 3.70GHz, instruction set [SSE2|AVX|AVX2|AVX512]
Thread count: 8 physical cores, 16 logical processors, using up to 16 threads

Non-default parameters:
TimeLimit  360
Heuristics  0.1
MIPFocus  3
Presolve  2
ImproveStartGap  0.5

Optimize a model with 86581 rows, 62681 columns and 408150 nonzeros
Model fingerprint: 0xb695ea4e
Model has 20 quadratic constraints
Variable types: 20 continuous, 62661 integer (62160 binary)
Coefficient statistics:
  Matrix range     [5e-01, 2e+03]
  QMatrix range    [1e+00, 1e+00]
  QLMatrix range   [1e+00, 1e+00]
  Objective range  [1e+00, 1e+00]
  Bounds range     [1e+00, 1e+00]
  RHS range        [1e+00, 6e+03]

MIP start from previous solve produced solution with objective 309 (0.06s)
Loaded MIP start from previous solve with objective 309

Presolve removed 79933 rows and 59934 columns
Presolve time: 0.41s
Presolved: 6648 rows, 2747 columns, 29158 nonzeros
Presolved model has 20 quadratic constraint(s)
Variable types: 20 continuous, 2727 integer (2597 binary)

Resetting heuristic parameters to focus on improving solution
(using Heuristics=0.5 and RINS=10)...

Root relaxation presolve removed 4612 rows and 1888 columns
Root relaxation presolved: 2036 rows, 859 columns, 8173 nonzeros


Root relaxation: objective 3.070000e+02, 274 iterations, 0.02 seconds (0.02 work units)

    Nodes    |    Current Node    |     Objective Bounds      |     Work
 Expl Unexpl |  Obj  Depth IntInf | Incumbent    BestBd   Gap | It/Node Time

     0     0  307.00000    0   46  309.00000  307.00000  0.65%     -    0s
Performing another presolve...
Presolve removed 6564 rows and 2692 columns
Presolve time: 0.22s
H    0     0                     307.0000000  307.00000  0.00%     -    0s

Explored 1 nodes (274 simplex iterations) in 0.77 seconds (1.00 work units)
Thread count was 16 (of 16 available processors)

Solution count 3: 307 307 309 

Optimal solution found (tolerance 1.00e-04)
Best objective 3.070000000000e+02, best bound 3.070000000000e+02, gap 0.0000%

User-callback calls 768, time in user-callback 0.00 sec
